
Gurobi 11.0.0 (linux64) logging started Thu Sep 19 18:12:41 2024

Set parameter LogFile to value "/lustre1/scratch/348/vsc34888/JointResearch/05.Models/06.Benchmarking/E.Representative_days_based_on_Line_Benefits_OptModel/IEEE118_mod1_ByStages_nc150/openStarNet_IEEE118_mod1_ByStages_nc150.log"
Set parameter Method to value 2
Set parameter MIPFocus to value 1
Set parameter Presolve to value 2
Set parameter RINS to value 100
Set parameter MIPGap to value 0.01
Set parameter Threads to value 36
Set parameter TimeLimit to value 259200
Set parameter IterationLimit to value 760000000
Gurobi Optimizer version 11.0.0 build v11.0.0rc2 (linux64 - "Rocky Linux 8.9 (Green Obsidian)")

CPU model: Intel(R) Xeon(R) Gold 6240 CPU @ 2.60GHz, instruction set [SSE2|AVX|AVX2|AVX512]
Thread count: 36 physical cores, 36 logical processors, using up to 36 threads

Optimize a model with 213153 rows, 157539 columns and 549084 nonzeros
Model fingerprint: 0xe395c5fd
Variable types: 157505 continuous, 34 integer (34 binary)
Coefficient statistics:
  Matrix range     [3e-04, 9e+03]
  Objective range  [1e+00, 1e+00]
  Bounds range     [1e-04, 3e+00]
  RHS range        [2e-04, 3e+00]
Presolve removed 144045 rows and 72413 columns
Presolve time: 1.01s
Presolved: 69108 rows, 85126 columns, 253023 nonzeros
Variable types: 85092 continuous, 34 integer (34 binary)
Root relaxation presolved: 69108 rows, 85126 columns, 253023 nonzeros

Root barrier log...

Ordering time: 0.03s

Barrier statistics:
 Dense cols : 34
 AA' NZ     : 3.126e+05
 Factor NZ  : 1.236e+06 (roughly 70 MB of memory)
 Factor Ops : 2.724e+07 (less than 1 second per iteration)
 Threads    : 35

                  Objective                Residual
Iter       Primal          Dual         Primal    Dual     Compl     Time
   0   8.84059581e+06 -2.90926143e+09  1.55e+01 3.00e+03  6.28e+04     2s
   1   2.12302804e+06 -1.12295062e+09  3.44e+00 5.87e-08  1.30e+04     2s
   2   5.47060588e+05 -3.12929650e+08  6.21e-01 5.93e-08  2.35e+03     2s
   3   2.81919095e+05 -8.62323185e+07  1.03e-01 1.42e-08  4.92e+02     2s
   4   2.09886860e+05 -1.21376194e+07  1.16e-02 2.11e-09  6.22e+01     2s
   5   1.59249425e+05 -5.82650781e+06  5.11e-03 9.81e-10  2.97e+01     2s
   6   1.01065444e+05 -2.94939991e+06  1.96e-03 4.57e-10  1.50e+01     2s
   7   6.72078646e+04 -7.87199135e+05  9.99e-04 1.13e-10  4.20e+00     2s
   8   3.92617473e+04 -2.90530054e+05  3.80e-04 3.90e-11  1.62e+00     2s
   9   2.10193551e+04 -1.51010837e+05  1.64e-04 2.02e-11  8.43e-01     2s
  10   1.01873145e+04 -3.62655775e+04  5.67e-05 1.46e-11  2.28e-01     2s
  11   6.86563883e+03 -1.35945005e+04  3.34e-05 1.46e-11  1.00e-01     2s
  12   4.19302549e+03 -9.81456730e+03  1.70e-05 7.28e-12  6.86e-02     2s
  13   3.39060195e+03 -4.47746624e+03  1.22e-05 1.46e-11  3.85e-02     2s
  14   2.95803755e+03 -1.79587582e+03  9.81e-06 7.28e-12  2.33e-02     2s
  15   2.20397372e+03 -6.61130958e+02  5.77e-06 1.46e-11  1.40e-02     2s
  16   1.66541959e+03  1.23607045e+02  3.02e-06 7.28e-12  7.55e-03     2s
  17   1.41185390e+03  5.13674046e+02  1.81e-06 7.28e-12  4.40e-03     2s
  18   1.31624281e+03  6.95808368e+02  1.37e-06 7.28e-12  3.04e-03     2s
  19   1.23329677e+03  7.68619817e+02  1.00e-06 1.46e-11  2.28e-03     2s
  20   1.19256880e+03  8.21755539e+02  8.25e-07 7.28e-12  1.82e-03     2s
  21   1.17094297e+03  8.45515325e+02  7.30e-07 7.28e-12  1.59e-03     2s
  22   1.11500483e+03  8.84039021e+02  4.96e-07 7.28e-12  1.13e-03     2s
  23   1.09009519e+03  9.36623663e+02  3.90e-07 7.28e-12  7.52e-04     2s
  24   1.05722968e+03  9.48131547e+02  2.60e-07 7.28e-12  5.34e-04     2s
  25   1.03922043e+03  9.61055468e+02  1.91e-07 7.28e-12  3.83e-04     2s
  26   1.01943525e+03  9.74942189e+02  1.13e-07 7.28e-12  2.18e-04     2s
  27   1.01027433e+03  9.81258094e+02  7.31e-08 7.28e-12  1.42e-04     3s
  28   1.00835616e+03  9.82825421e+02  6.48e-08 7.28e-12  1.25e-04     3s
  29   1.00217098e+03  9.85955932e+02  3.84e-08 7.28e-12  7.94e-05     3s
  30   1.00056671e+03  9.87313113e+02  3.16e-08 7.28e-12  6.49e-05     3s
  31   9.98103226e+02  9.89068836e+02  2.15e-08 7.28e-12  4.42e-05     3s
  32   9.94794629e+02  9.90454345e+02  7.46e-09 7.28e-12  2.13e-05     3s
  33   9.93794562e+02  9.91591061e+02  3.46e-09 7.28e-12  1.08e-05     3s
  34   9.93316525e+02  9.92180472e+02  1.59e-09 7.28e-12  5.56e-06     3s
  35   9.93106364e+02  9.92584749e+02  7.89e-10 1.46e-11  2.55e-06     3s
  36   9.92939881e+02  9.92821841e+02  9.17e-10 7.28e-12  5.78e-07     3s
  37   9.92901817e+02  9.92865986e+02  2.03e-09 7.28e-12  1.75e-07     3s
  38   9.92891866e+02  9.92882945e+02  6.76e-10 7.28e-12  4.37e-08     3s
  39   9.92887189e+02  9.92886405e+02  5.36e-10 1.46e-11  3.84e-09     3s
  40   9.92886888e+02  9.92886842e+02  7.45e-11 1.46e-11  2.28e-10     3s
  41   9.92886873e+02  9.92886868e+02  9.26e-10 7.28e-12  2.31e-11     3s

Barrier solved model in 41 iterations and 2.97 seconds (2.98 work units)
Optimal objective 9.92886873e+02


Root relaxation: objective 9.928869e+02, 6124 iterations, 2.68 seconds (2.08 work units)

    Nodes    |    Current Node    |     Objective Bounds      |     Work
 Expl Unexpl |  Obj  Depth IntInf | Incumbent    BestBd   Gap | It/Node Time

     0     0  992.88687    0   22          -  992.88687      -     -    4s
H    0     0                    8200.0836449  992.88687  87.9%     -    9s
H    0     0                    3600.8060258  992.88687  72.4%     -   18s
     0     0 1007.52598    0   21 3600.80603 1007.52598  72.0%     -   26s
H    0     0                    3440.7427544 1007.52598  70.7%     -   31s
     0     0 1008.57808    0   19 3440.74275 1008.57808  70.7%     -   34s
     0     0 1008.64916    0   19 3440.74275 1008.64916  70.7%     -   35s
     0     0 1010.44232    0   19 3440.74275 1010.44232  70.6%     -   38s
H    0     0                    3070.0546788 1010.44232  67.1%     -   45s
     0     0 1010.44601    0   19 3070.05468 1010.44601  67.1%     -   45s
     0     0 1010.44601    0   19 3070.05468 1010.44601  67.1%     -   45s
     0     0 1010.85223    0   19 3070.05468 1010.85223  67.1%     -   47s
     0     0 1010.86692    0   19 3070.05468 1010.86692  67.1%     -   48s
     0     0 1010.86698    0   19 3070.05468 1010.86698  67.1%     -   48s
     0     0 1010.91743    0   19 3070.05468 1010.91743  67.1%     -   49s
     0     0 1010.91809    0   19 3070.05468 1010.91809  67.1%     -   50s
     0     0 1011.00250    0   20 3070.05468 1011.00250  67.1%     -   53s
H    0     0                    1091.2448312 1011.00250  7.35%     -  664s
     0     2 1011.00250    0   20 1091.24483 1011.00250  7.35%     -  667s
     1     4 1036.67308    1   18 1091.24483 1011.00421  7.35%  6837  677s
     3     6     cutoff    2      1091.24483 1028.33219  5.77%  5799  688s
     7     8 1038.17715    3   17 1091.24483 1034.91273  5.16%  4173  714s
    13    10 1051.00998    4   18 1091.24483 1038.31769  4.85%  5010  749s
    21    10 1052.64287    5   17 1091.24483 1044.65620  4.27%  5312  808s
    31    18     cutoff    6      1091.24483 1052.58332  3.54%  8742  826s
    41    20 1062.95788    7   14 1091.24483 1053.93748  3.42%  7296  851s
    59    32 1065.49463    8   13 1091.24483 1057.08042  3.13%  6113  870s
    79    38     cutoff    9      1091.24483 1059.36394  2.92%  5485  899s
   111    48 1076.33902   10   11 1091.24483 1068.56480  2.08%  4937  909s
   147    50     cutoff   11      1091.24483 1073.68934  1.61%  4110  930s
   183    51 1079.92164   12    8 1091.24483 1075.04228  1.48%  3692  961s
   226    39     cutoff   13      1091.24483 1076.53611  1.35%  3383  977s
   278    27 1085.25844   14    7 1091.24483 1076.53611  1.35%  2998  990s

Cutting planes:
  Implied bound: 268
  MIR: 517
  Relax-and-lift: 16

Explored 324 nodes (904142 simplex iterations) in 990.88 seconds (1188.63 work units)
Thread count was 36 (of 36 available processors)

Solution count 5: 1091.24 3070.05 3440.74 ... 8200.08

Optimal solution found (tolerance 1.00e-02)
Best objective 1.091244831160e+03, best bound 1.080813804895e+03, gap 0.9559%

Gurobi 11.0.0 (linux64) logging started Thu Sep 19 18:29:53 2024

Set parameter LogFile to value "/lustre1/scratch/348/vsc34888/JointResearch/05.Models/06.Benchmarking/E.Representative_days_based_on_Line_Benefits_OptModel/IEEE118_mod1_ByStages_nc150/openStarNet_IEEE118_mod1_ByStages_nc150.log"
Set parameter Method to value 2
Set parameter MIPFocus to value 1
Set parameter Presolve to value 2
Set parameter RINS to value 100
Set parameter MIPGap to value 0.01
Set parameter Threads to value 36
Set parameter TimeLimit to value 259200
Set parameter IterationLimit to value 760000000
Gurobi Optimizer version 11.0.0 build v11.0.0rc2 (linux64 - "Rocky Linux 8.9 (Green Obsidian)")

CPU model: Intel(R) Xeon(R) Gold 6240 CPU @ 2.60GHz, instruction set [SSE2|AVX|AVX2|AVX512]
Thread count: 36 physical cores, 36 logical processors, using up to 36 threads

Optimize a model with 213153 rows, 157505 columns and 528650 nonzeros
Model fingerprint: 0x07094412
Coefficient statistics:
  Matrix range     [3e-04, 9e+03]
  Objective range  [1e+00, 1e+00]
  Bounds range     [1e-04, 3e+00]
  RHS range        [2e-04, 2e+02]
Presolve removed 159018 rows and 69342 columns
Presolve time: 0.31s
Presolved: 54135 rows, 88762 columns, 214991 nonzeros

Ordering time: 0.02s

Barrier statistics:
 AA' NZ     : 1.941e+05
 Factor NZ  : 7.478e+05 (roughly 60 MB of memory)
 Factor Ops : 1.143e+07 (less than 1 second per iteration)
 Threads    : 36

                  Objective                Residual
Iter       Primal          Dual         Primal    Dual     Compl     Time
   0   1.47251039e+07 -2.13138555e+09  7.80e+01 1.21e+02  4.24e+04     0s
   1   1.68160443e+06 -6.19053561e+08  7.84e+00 4.24e-12  5.60e+03     0s
   2   4.18573689e+05 -1.10686396e+08  1.24e+00 4.16e-12  8.09e+02     1s
   3   1.92209728e+05 -1.35225229e+07  4.43e-02 3.48e-12  7.43e+01     1s
   4   1.04401778e+05 -1.60512014e+06  4.13e-03 4.09e-12  8.87e+00     1s
   5   6.15206116e+04 -5.09889183e+05  1.61e-03 1.36e-12  2.95e+00     1s
   6   2.94883815e+04 -1.44927048e+05  5.22e-04 9.09e-13  9.00e-01     1s
   7   1.47120877e+04 -4.53990355e+04  2.01e-04 9.09e-13  3.10e-01     1s
   8   8.66028107e+03 -1.84020395e+04  1.04e-04 4.55e-13  1.40e-01     1s
   9   5.62975209e+03 -7.30880447e+03  6.03e-05 9.09e-13  6.67e-02     1s
  10   3.72666916e+03 -3.99879142e+03  3.39e-05 9.09e-13  3.98e-02     1s
  11   2.58856886e+03 -1.14495108e+03  1.85e-05 9.09e-13  1.92e-02     1s
  12   1.73236021e+03 -2.58443384e+02  7.40e-06 9.09e-13  1.03e-02     1s
  13   1.48719288e+03  5.82059224e+02  4.30e-06 1.82e-12  4.67e-03     1s
  14   1.32231955e+03  7.78076493e+02  2.39e-06 9.09e-13  2.81e-03     1s
  15   1.25222753e+03  9.04014779e+02  1.62e-06 9.09e-13  1.80e-03     1s
  16   1.20390425e+03  9.89501481e+02  1.10e-06 4.55e-13  1.11e-03     1s
  17   1.16721972e+03  1.03270963e+03  7.22e-07 9.09e-13  6.94e-04     1s
  18   1.12525472e+03  1.05144330e+03  3.16e-07 9.09e-13  3.81e-04     1s
  19   1.11468787e+03  1.06743777e+03  2.13e-07 4.55e-13  2.44e-04     1s
  20   1.10584348e+03  1.07717261e+03  1.31e-07 9.09e-13  1.48e-04     1s
  21   1.09950945e+03  1.08541699e+03  7.32e-08 9.09e-13  7.27e-05     1s
  22   1.09540013e+03  1.08876355e+03  3.57e-08 4.55e-13  3.42e-05     1s
  23   1.09342128e+03  1.08977469e+03  1.84e-08 9.09e-13  1.88e-05     1s
  24   1.09237944e+03  1.09049838e+03  9.44e-09 9.09e-13  9.70e-06     1s
  25   1.09170292e+03  1.09079105e+03  3.72e-09 9.09e-13  4.70e-06     1s
  26   1.09142934e+03  1.09104094e+03  1.46e-09 9.09e-13  2.00e-06     1s
  27   1.09129585e+03  1.09120529e+03  3.72e-10 9.09e-13  4.67e-07     1s
  28   1.09126490e+03  1.09123410e+03  3.87e-10 9.09e-13  1.59e-07     1s
  29   1.09124653e+03  1.09124435e+03  1.77e-10 9.09e-13  1.12e-08     1s
  30   1.09124491e+03  1.09124480e+03  2.00e-09 9.09e-13  5.70e-10     1s
  31   1.09124483e+03  1.09124483e+03  5.02e-09 9.09e-13  5.87e-12     1s

Barrier solved model in 31 iterations and 1.19 seconds (1.12 work units)
Optimal objective 1.09124483e+03

Crossover log...

   15335 DPushes remaining with DInf 0.0000000e+00                 1s
       0 DPushes remaining with DInf 0.0000000e+00                 1s

     565 PPushes remaining with PInf 0.0000000e+00                 1s
       0 PPushes remaining with PInf 0.0000000e+00                 2s

  Push phase complete: Pinf 0.0000000e+00, Dinf 2.4025529e-12      2s

Iteration    Objective       Primal Inf.    Dual Inf.      Time
    6377    1.0912448e+03   0.000000e+00   0.000000e+00      2s

Solved in 6377 iterations and 1.73 seconds (1.40 work units)
Optimal objective  1.091244831e+03

Gurobi 11.0.0 (linux64) logging started Sat Sep 21 21:37:45 2024

Set parameter LogFile to value "/lustre1/scratch/348/vsc34888/JointResearch/05.Models/06.Benchmarking/E.Representative_days_based_on_Line_Benefits_OptModel/IEEE118_mod1_ByStages_nc150/openStarNet_IEEE118_mod1_ByStages_nc150.log"
Set parameter Method to value 2
Set parameter MIPFocus to value 1
Set parameter Presolve to value 2
Set parameter RINS to value 100
Set parameter MIPGap to value 0.01
Set parameter Threads to value 36
Set parameter TimeLimit to value 259200
Set parameter IterationLimit to value 760000000
Gurobi Optimizer version 11.0.0 build v11.0.0rc2 (linux64 - "Rocky Linux 8.9 (Green Obsidian)")

CPU model: Intel(R) Xeon(R) Gold 6240 CPU @ 2.60GHz, instruction set [SSE2|AVX|AVX2|AVX512]
Thread count: 36 physical cores, 36 logical processors, using up to 36 threads

Optimize a model with 213153 rows, 157505 columns and 528650 nonzeros
Model fingerprint: 0x4f39d652
Coefficient statistics:
  Matrix range     [3e-04, 9e+03]
  Objective range  [1e+00, 1e+00]
  Bounds range     [1e-04, 3e+00]
  RHS range        [2e-04, 3e+00]
Presolve removed 160990 rows and 73315 columns
Presolve time: 0.31s
Presolved: 52163 rows, 86576 columns, 206317 nonzeros

Ordering time: 0.01s

Barrier statistics:
 AA' NZ     : 1.802e+05
 Factor NZ  : 6.848e+05 (roughly 60 MB of memory)
 Factor Ops : 9.924e+06 (less than 1 second per iteration)
 Threads    : 36

                  Objective                Residual
Iter       Primal          Dual         Primal    Dual     Compl     Time
   0   1.55357775e+07 -1.74607284e+09  1.02e+02 1.43e+02  4.38e+04     0s
   1   1.44977713e+06 -6.22185340e+08  8.10e+00 4.47e-12  5.44e+03     0s
   2   4.15578864e+05 -1.25644301e+08  1.34e+00 4.69e-12  8.91e+02     0s
   3   2.10036988e+05 -1.75625143e+07  5.30e-02 4.59e-12  9.75e+01     1s
   4   1.28588593e+05 -2.37939796e+06  6.24e-03 2.47e-12  1.33e+01     1s
   5   8.09058873e+04 -8.27675777e+05  2.95e-03 1.50e-12  4.81e+00     1s
   6   4.98985538e+04 -3.08249101e+05  1.31e-03 5.37e-13  1.89e+00     1s
   7   3.37180961e+04 -1.20384350e+05  5.91e-04 4.55e-13  8.13e-01     1s
   8   2.61735507e+04 -4.89166415e+04  3.53e-04 9.09e-13  3.96e-01     1s
   9   2.05702171e+04 -2.26778047e+04  1.94e-04 9.09e-13  2.28e-01     1s
  10   1.74873120e+04 -5.85895579e+03  1.19e-04 4.55e-13  1.23e-01     1s
  11   1.51337117e+04  3.15679142e+03  6.58e-05 4.55e-13  6.32e-02     1s
  12   1.33792241e+04  8.09639240e+03  2.95e-05 9.09e-13  2.79e-02     1s
  13   1.27057437e+04  1.02355034e+04  1.70e-05 9.09e-13  1.30e-02     1s
  14   1.22419501e+04  1.08955015e+04  9.06e-06 9.09e-13  7.10e-03     1s
  15   1.20095253e+04  1.12306459e+04  5.26e-06 9.09e-13  4.11e-03     1s
  16   1.18705735e+04  1.14208076e+04  3.08e-06 4.55e-13  2.37e-03     1s
  17   1.17868114e+04  1.15473325e+04  1.83e-06 4.55e-13  1.26e-03     1s
  18   1.17080908e+04  1.16129195e+04  6.89e-07 9.09e-13  5.02e-04     1s
  19   1.16878489e+04  1.16324883e+04  4.14e-07 9.09e-13  2.92e-04     1s
  20   1.16710300e+04  1.16460628e+04  1.91e-07 9.09e-13  1.32e-04     1s
  21   1.16607373e+04  1.16528385e+04  5.94e-08 9.09e-13  4.17e-05     1s
  22   1.16577715e+04  1.16550740e+04  2.26e-08 6.82e-13  1.42e-05     1s
  23   1.16566215e+04  1.16555459e+04  8.84e-09 9.09e-13  5.67e-06     1s
  24   1.16561265e+04  1.16557087e+04  3.06e-09 4.55e-13  2.20e-06     1s
  25   1.16559484e+04  1.16557939e+04  1.50e-09 9.09e-13  8.15e-07     1s
  26   1.16558628e+04  1.16558255e+04  1.05e-09 9.09e-13  1.97e-07     1s
  27   1.16558465e+04  1.16558433e+04  6.71e-10 9.09e-13  1.70e-08     1s
  28   1.16558444e+04  1.16558440e+04  3.73e-10 6.82e-13  2.04e-09     1s
  29   1.16558442e+04  1.16558442e+04  5.07e-10 9.09e-13  9.12e-11     1s

Barrier solved model in 29 iterations and 1.13 seconds (1.02 work units)
Optimal objective 1.16558442e+04

Crossover log...

   15089 DPushes remaining with DInf 0.0000000e+00                 1s
       0 DPushes remaining with DInf 0.0000000e+00                 1s

    1116 PPushes remaining with PInf 0.0000000e+00                 1s
       0 PPushes remaining with PInf 0.0000000e+00                 1s

  Push phase complete: Pinf 0.0000000e+00, Dinf 2.8232502e-11      1s

Extra simplex iterations after uncrush: 19
Iteration    Objective       Primal Inf.    Dual Inf.      Time
    5668    1.1655844e+04   0.000000e+00   0.000000e+00      2s

Solved in 5668 iterations and 1.74 seconds (1.31 work units)
Optimal objective  1.165584424e+04

Gurobi 11.0.0 (linux64) logging started Sat Sep 21 21:38:30 2024

Set parameter LogFile to value "/lustre1/scratch/348/vsc34888/JointResearch/05.Models/06.Benchmarking/E.Representative_days_based_on_Line_Benefits_OptModel/IEEE118_mod1_ByStages_nc150/openStarNet_IEEE118_mod1_ByStages_nc150.log"
Set parameter Method to value 2
Set parameter MIPFocus to value 1
Set parameter Presolve to value 2
Set parameter RINS to value 100
Set parameter MIPGap to value 0.01
Set parameter Threads to value 36
Set parameter TimeLimit to value 259200
Set parameter IterationLimit to value 760000000
Gurobi Optimizer version 11.0.0 build v11.0.0rc2 (linux64 - "Rocky Linux 8.9 (Green Obsidian)")

CPU model: Intel(R) Xeon(R) Gold 6240 CPU @ 2.60GHz, instruction set [SSE2|AVX|AVX2|AVX512]
Thread count: 36 physical cores, 36 logical processors, using up to 36 threads

Optimize a model with 213153 rows, 157505 columns and 528650 nonzeros
Model fingerprint: 0x4f39d652
Coefficient statistics:
  Matrix range     [3e-04, 9e+03]
  Objective range  [1e+00, 1e+00]
  Bounds range     [1e-04, 3e+00]
  RHS range        [2e-04, 3e+00]
Presolve removed 160990 rows and 73315 columns
Presolve time: 0.31s
Presolved: 52163 rows, 86576 columns, 206317 nonzeros

Ordering time: 0.01s

Barrier statistics:
 AA' NZ     : 1.802e+05
 Factor NZ  : 6.848e+05 (roughly 60 MB of memory)
 Factor Ops : 9.924e+06 (less than 1 second per iteration)
 Threads    : 36

                  Objective                Residual
Iter       Primal          Dual         Primal    Dual     Compl     Time
   0   1.55357775e+07 -1.74607284e+09  1.02e+02 1.43e+02  4.38e+04     0s
   1   1.44977713e+06 -6.22185340e+08  8.10e+00 4.47e-12  5.44e+03     0s
   2   4.15578864e+05 -1.25644301e+08  1.34e+00 4.69e-12  8.91e+02     0s
   3   2.10036988e+05 -1.75625143e+07  5.30e-02 4.59e-12  9.75e+01     0s
   4   1.28588593e+05 -2.37939796e+06  6.24e-03 2.47e-12  1.33e+01     1s
   5   8.09058873e+04 -8.27675777e+05  2.95e-03 1.50e-12  4.81e+00     1s
   6   4.98985538e+04 -3.08249101e+05  1.31e-03 5.37e-13  1.89e+00     1s
   7   3.37180961e+04 -1.20384350e+05  5.91e-04 4.55e-13  8.13e-01     1s
   8   2.61735507e+04 -4.89166415e+04  3.53e-04 9.09e-13  3.96e-01     1s
   9   2.05702171e+04 -2.26778047e+04  1.94e-04 9.09e-13  2.28e-01     1s
  10   1.74873120e+04 -5.85895579e+03  1.19e-04 4.55e-13  1.23e-01     1s
  11   1.51337117e+04  3.15679142e+03  6.58e-05 4.55e-13  6.32e-02     1s
  12   1.33792241e+04  8.09639240e+03  2.95e-05 9.09e-13  2.79e-02     1s
  13   1.27057437e+04  1.02355034e+04  1.70e-05 9.09e-13  1.30e-02     1s
  14   1.22419501e+04  1.08955015e+04  9.06e-06 9.09e-13  7.10e-03     1s
  15   1.20095253e+04  1.12306459e+04  5.26e-06 9.09e-13  4.11e-03     1s
  16   1.18705735e+04  1.14208076e+04  3.08e-06 4.55e-13  2.37e-03     1s
  17   1.17868114e+04  1.15473325e+04  1.83e-06 4.55e-13  1.26e-03     1s
  18   1.17080908e+04  1.16129195e+04  6.89e-07 9.09e-13  5.02e-04     1s
  19   1.16878489e+04  1.16324883e+04  4.14e-07 9.09e-13  2.92e-04     1s
  20   1.16710300e+04  1.16460628e+04  1.91e-07 9.09e-13  1.32e-04     1s
  21   1.16607373e+04  1.16528385e+04  5.94e-08 9.09e-13  4.17e-05     1s
  22   1.16577715e+04  1.16550740e+04  2.26e-08 6.82e-13  1.42e-05     1s
  23   1.16566215e+04  1.16555459e+04  8.84e-09 9.09e-13  5.67e-06     1s
  24   1.16561265e+04  1.16557087e+04  3.06e-09 4.55e-13  2.20e-06     1s
  25   1.16559484e+04  1.16557939e+04  1.50e-09 9.09e-13  8.15e-07     1s
  26   1.16558628e+04  1.16558255e+04  1.05e-09 9.09e-13  1.97e-07     1s
  27   1.16558465e+04  1.16558433e+04  6.71e-10 9.09e-13  1.70e-08     1s
  28   1.16558444e+04  1.16558440e+04  3.73e-10 6.82e-13  2.04e-09     1s
  29   1.16558442e+04  1.16558442e+04  5.07e-10 9.09e-13  9.12e-11     1s

Barrier solved model in 29 iterations and 1.02 seconds (1.02 work units)
Optimal objective 1.16558442e+04

Crossover log...

   15089 DPushes remaining with DInf 0.0000000e+00                 1s
       0 DPushes remaining with DInf 0.0000000e+00                 1s

    1116 PPushes remaining with PInf 0.0000000e+00                 1s
       0 PPushes remaining with PInf 0.0000000e+00                 1s

  Push phase complete: Pinf 0.0000000e+00, Dinf 2.8232502e-11      1s

Extra simplex iterations after uncrush: 19
Iteration    Objective       Primal Inf.    Dual Inf.      Time
    5668    1.1655844e+04   0.000000e+00   0.000000e+00      2s

Solved in 5668 iterations and 1.58 seconds (1.31 work units)
Optimal objective  1.165584424e+04

Gurobi 11.0.0 (linux64) logging started Mon Nov  4 16:21:03 2024

Set parameter LogFile to value "/lustre1/scratch/348/vsc34888/JointResearch/05.Models/06.Benchmarking/E.Representative_days_based_on_Line_Benefits_OptModel/IEEE118_mod1_ByStages_nc150/openStarNet_IEEE118_mod1_ByStages_nc150.log"
Set parameter Method to value 2
Set parameter MIPFocus to value 1
Set parameter Presolve to value 2
Set parameter RINS to value 100
Set parameter MIPGap to value 0.01
Set parameter Threads to value 36
Set parameter TimeLimit to value 259200
Set parameter IterationLimit to value 760000000
Gurobi Optimizer version 11.0.0 build v11.0.0rc2 (linux64 - "Rocky Linux 8.9 (Green Obsidian)")

CPU model: Intel(R) Xeon(R) Gold 6240 CPU @ 2.60GHz, instruction set [SSE2|AVX|AVX2|AVX512]
Thread count: 36 physical cores, 36 logical processors, using up to 36 threads

Optimize a model with 215995 rows, 159335 columns and 555798 nonzeros
Model fingerprint: 0x24547799
Variable types: 159301 continuous, 34 integer (34 binary)
Coefficient statistics:
  Matrix range     [3e-04, 9e+03]
  Objective range  [1e+00, 1e+00]
  Bounds range     [1e-04, 3e+00]
  RHS range        [2e-04, 3e+00]
Presolve removed 145981 rows and 73189 columns
Presolve time: 0.96s
Presolved: 70014 rows, 86146 columns, 256301 nonzeros
Variable types: 86112 continuous, 34 integer (34 binary)
Root relaxation presolved: 70014 rows, 86146 columns, 256301 nonzeros

Root barrier log...

Ordering time: 0.02s

Barrier statistics:
 Dense cols : 34
 AA' NZ     : 3.164e+05
 Factor NZ  : 1.239e+06 (roughly 70 MB of memory)
 Factor Ops : 2.712e+07 (less than 1 second per iteration)
 Threads    : 35

                  Objective                Residual
Iter       Primal          Dual         Primal    Dual     Compl     Time
   0   8.86360154e+06 -2.37773588e+09  1.55e+01 3.27e+03  5.08e+04     2s
   1   2.12053452e+06 -9.14199353e+08  3.44e+00 5.16e-08  1.05e+04     2s
   2   5.40049200e+05 -2.63054942e+08  6.19e-01 2.56e-08  1.95e+03     2s
   3   2.91428049e+05 -7.45643763e+07  1.31e-01 7.81e-09  4.37e+02     2s
   4   2.04034933e+05 -1.03732728e+07  1.67e-02 1.11e-09  5.34e+01     2s
   5   1.41810147e+05 -3.50135245e+06  4.63e-03 3.41e-10  1.79e+01     2s
   6   9.00038776e+04 -1.04358875e+06  1.92e-03 9.44e-11  5.51e+00     2s
   7   5.06804438e+04 -6.80943027e+05  7.64e-04 6.08e-11  3.55e+00     2s
   8   3.39844329e+04 -1.85170038e+05  3.94e-04 1.31e-11  1.06e+00     2s
   9   1.58885164e+04 -4.67548582e+04  1.31e-04 7.28e-12  3.03e-01     2s
  10   9.10187416e+03 -2.10365924e+04  6.93e-05 7.28e-12  1.46e-01     2s
  11   6.07384956e+03 -9.37649748e+03  4.15e-05 7.28e-12  7.48e-02     2s
  12   3.52048547e+03 -4.91887208e+03  1.93e-05 7.28e-12  4.08e-02     2s
  13   2.52502990e+03 -3.09096677e+03  1.12e-05 7.28e-12  2.72e-02     2s
  14   1.90689751e+03 -1.40241762e+03  6.39e-06 7.28e-12  1.60e-02     2s
  15   1.61589491e+03 -7.47539135e+02  4.27e-06 5.58e-12  1.14e-02     2s
  16   1.37701017e+03  2.27852627e+02  2.65e-06 7.28e-12  5.56e-03     2s
  17   1.17138176e+03  5.70909516e+02  1.37e-06 1.46e-11  2.91e-03     2s
  18   1.12466862e+03  7.27424055e+02  1.08e-06 7.28e-12  1.92e-03     2s
  19   1.09025042e+03  7.78338879e+02  8.81e-07 7.28e-12  1.51e-03     2s
  20   1.04032360e+03  8.05100922e+02  5.92e-07 7.28e-12  1.14e-03     2s
  21   1.01899170e+03  8.42575557e+02  4.71e-07 3.83e-12  8.54e-04     2s
  22   9.92465674e+02  8.70290609e+02  3.26e-07 7.28e-12  5.91e-04     2s
  23   9.70028949e+02  9.00955554e+02  2.02e-07 5.40e-12  3.34e-04     2s
  24   9.60308171e+02  9.10715048e+02  1.49e-07 7.80e-12  2.40e-04     2s
  25   9.53671579e+02  9.17067518e+02  1.14e-07 7.28e-12  1.77e-04     2s
  26   9.47205574e+02  9.21564953e+02  7.97e-08 7.28e-12  1.24e-04     2s
  27   9.41699781e+02  9.24811214e+02  5.10e-08 7.28e-12  8.17e-05     2s
  28   9.39449302e+02  9.27730931e+02  3.94e-08 1.46e-11  5.67e-05     3s
  29   9.37039575e+02  9.28894190e+02  2.71e-08 7.28e-12  3.94e-05     3s
  30   9.34900171e+02  9.29785167e+02  1.67e-08 7.28e-12  2.47e-05     3s
  31   9.33247081e+02  9.30852024e+02  8.07e-09 7.28e-12  1.16e-05     3s
  32   9.32551448e+02  9.31284878e+02  4.75e-09 7.28e-12  6.13e-06     3s
  33   9.32028484e+02  9.31397228e+02  2.20e-09 7.28e-12  3.05e-06     3s
  34   9.31836709e+02  9.31501796e+02  1.27e-09 7.28e-12  1.62e-06     3s
  35   9.31718142e+02  9.31534822e+02  6.99e-10 7.28e-12  8.87e-07     3s
  36   9.31645061e+02  9.31559606e+02  1.83e-09 7.28e-12  4.13e-07     3s
  37   9.31595646e+02  9.31568035e+02  8.01e-10 7.28e-12  1.34e-07     3s
  38   9.31577597e+02  9.31571571e+02  7.38e-10 7.28e-12  2.92e-08     3s
  39   9.31574143e+02  9.31573314e+02  9.47e-11 3.98e-12  4.01e-09     3s
  40   9.31573770e+02  9.31573741e+02  2.42e-10 7.28e-12  1.41e-10     3s
  41   9.31573761e+02  9.31573760e+02  2.62e-10 1.46e-11  3.27e-12     3s

Barrier solved model in 41 iterations and 3.04 seconds (3.04 work units)
Optimal objective 9.31573761e+02


Root relaxation: objective 9.315738e+02, 6445 iterations, 2.98 seconds (2.40 work units)

    Nodes    |    Current Node    |     Objective Bounds      |     Work
 Expl Unexpl |  Obj  Depth IntInf | Incumbent    BestBd   Gap | It/Node Time

     0     0  931.57376    0   22          -  931.57376      -     -    4s
H    0     0                    7107.7216995  931.57376  86.9%     -   10s
H    0     0                    3018.5041612  931.57376  69.1%     -   16s
     0     0  946.07604    0   20 3018.50416  946.07604  68.7%     -   25s
H    0     0                    2764.8380324  946.07604  65.8%     -   31s
     0     0  946.69726    0   20 2764.83803  946.69726  65.8%     -   32s
     0     0  946.69992    0   20 2764.83803  946.69992  65.8%     -   32s
     0     0  946.70013    0   20 2764.83803  946.70013  65.8%     -   32s
     0     0  948.50185    0   18 2764.83803  948.50185  65.7%     -   34s
H    0     0                    1101.5547864  948.50185  13.9%     -   37s
     0     0  949.90707    0   18 1101.55479  949.90707  13.8%     -   38s
     0     0  949.90707    0   17 1101.55479  949.90707  13.8%     -   42s
     0     0  949.90707    0   17 1101.55479  949.90707  13.8%     -   43s
     0     0  949.90707    0   17 1101.55479  949.90707  13.8%     -   46s
     0     0  949.90707    0   17 1101.55479  949.90707  13.8%     -   49s
H    0     0                    1035.9450246  949.90707  8.31%     -  383s
     0     2  949.90707    0   17 1035.94502  949.90707  8.31%     -  385s
     1     4  976.50706    1   17 1035.94502  949.90707  8.31%  6429  392s
     3     8  989.61385    2   18 1035.94502  967.18564  6.64%  4015  401s
     7    12     cutoff    3      1035.94502  970.15223  6.35%  4114  422s
    15    20  982.12320    4   15 1035.94502  976.13064  5.77%  4089  442s
    27    26     cutoff    5      1035.94502  982.33174  5.18%  4354  471s
    47    34  996.89044    6   11 1035.94502  990.29480  4.41%  4139  503s
    73    44  999.35442    7   11 1035.94502  995.62400  3.89%  4046  541s
   107    45 1001.66871    8   11 1035.94502  999.52604  3.52%  3888  559s
   143    51 1015.19900    9   11 1035.94502 1001.84338  3.29%  3520  576s
   179    50     cutoff   10      1035.94502 1007.62359  2.73%  3171  606s
   215    33 1019.28652   11    9 1035.94502 1009.34866  2.57%  2968  611s
   264    18 1027.18881   12    7 1035.94502 1018.72936  1.66%  2579  622s
   302    11 1030.04689   13    7 1035.94502 1025.43990  1.01%  2460  634s

Cutting planes:
  Implied bound: 261
  MIR: 532
  Flow cover: 1
  RLT: 1
  Relax-and-lift: 1

Explored 323 nodes (791655 simplex iterations) in 634.38 seconds (782.66 work units)
Thread count was 36 (of 36 available processors)

Solution count 5: 1035.95 1101.55 2764.84 ... 7107.72

Optimal solution found (tolerance 1.00e-02)
Best objective 1.035945024627e+03, best bound 1.030690853099e+03, gap 0.5072%

Gurobi 11.0.0 (linux64) logging started Mon Nov  4 16:32:20 2024

Set parameter LogFile to value "/lustre1/scratch/348/vsc34888/JointResearch/05.Models/06.Benchmarking/E.Representative_days_based_on_Line_Benefits_OptModel/IEEE118_mod1_ByStages_nc150/openStarNet_IEEE118_mod1_ByStages_nc150.log"
Set parameter Method to value 2
Set parameter MIPFocus to value 1
Set parameter Presolve to value 2
Set parameter RINS to value 100
Set parameter MIPGap to value 0.01
Set parameter Threads to value 36
Set parameter TimeLimit to value 259200
Set parameter IterationLimit to value 760000000
Gurobi Optimizer version 11.0.0 build v11.0.0rc2 (linux64 - "Rocky Linux 8.9 (Green Obsidian)")

CPU model: Intel(R) Xeon(R) Gold 6240 CPU @ 2.60GHz, instruction set [SSE2|AVX|AVX2|AVX512]
Thread count: 36 physical cores, 36 logical processors, using up to 36 threads

Optimize a model with 215995 rows, 159301 columns and 535092 nonzeros
Model fingerprint: 0x0d905363
Coefficient statistics:
  Matrix range     [3e-04, 9e+03]
  Objective range  [1e+00, 1e+00]
  Bounds range     [1e-04, 3e+00]
  RHS range        [2e-04, 2e+02]
Presolve removed 161069 rows and 69869 columns
Presolve time: 0.32s
Presolved: 54926 rows, 89888 columns, 217185 nonzeros

Ordering time: 0.02s

Barrier statistics:
 AA' NZ     : 1.893e+05
 Factor NZ  : 7.535e+05 (roughly 60 MB of memory)
 Factor Ops : 1.140e+07 (less than 1 second per iteration)
 Threads    : 36

                  Objective                Residual
Iter       Primal          Dual         Primal    Dual     Compl     Time
   0   1.37872257e+07 -2.38083423e+09  9.15e+01 1.53e+02  4.97e+04     0s
   1   1.53581184e+06 -7.65765720e+08  8.85e+00 6.51e-12  6.67e+03     0s
   2   3.80851182e+05 -1.66766629e+08  1.27e+00 4.66e-12  1.11e+03     0s
   3   2.08605502e+05 -1.86875354e+07  8.21e-02 3.82e-12  1.03e+02     1s
   4   1.36359993e+05 -2.56065941e+06  5.20e-03 5.46e-12  1.38e+01     1s
   5   8.26916248e+04 -6.98884938e+05  1.90e-03 9.09e-12  3.99e+00     1s
   6   4.32222626e+04 -2.03734002e+05  6.77e-04 4.55e-12  1.26e+00     1s
   7   2.26994016e+04 -6.55342405e+04  2.67e-04 2.05e-12  4.49e-01     1s
   8   1.17715176e+04 -2.28738544e+04  1.18e-04 6.82e-13  1.76e-01     1s
   9   6.85619227e+03 -7.70389907e+03  6.05e-05 9.09e-13  7.41e-02     1s
  10   4.90576263e+03 -3.50543936e+03  3.94e-05 4.55e-13  4.28e-02     1s
  11   3.29292922e+03 -1.11824595e+03  2.23e-05 4.55e-13  2.25e-02     1s
  12   2.03312974e+03  1.62407862e+02  9.22e-06 9.09e-13  9.52e-03     1s
  13   1.60240988e+03  5.77960096e+02  5.18e-06 9.09e-13  5.22e-03     1s
  14   1.38214801e+03  7.34043550e+02  3.08e-06 4.55e-13  3.30e-03     1s
  15   1.26328494e+03  8.50628891e+02  1.98e-06 4.55e-13  2.10e-03     1s
  16   1.18332499e+03  9.21279737e+02  1.25e-06 4.55e-13  1.33e-03     1s
  17   1.14205041e+03  9.67596491e+02  8.89e-07 9.09e-13  8.88e-04     1s
  18   1.10073269e+03  1.00348878e+03  5.40e-07 9.09e-13  4.95e-04     1s
  19   1.08319582e+03  1.01532638e+03  3.91e-07 4.55e-13  3.46e-04     1s
  20   1.06112388e+03  1.02212291e+03  2.11e-07 9.09e-13  1.99e-04     1s
  21   1.04991666e+03  1.02907704e+03  1.16e-07 9.09e-13  1.06e-04     1s
  22   1.04249993e+03  1.03224510e+03  5.30e-08 4.55e-13  5.22e-05     1s
  23   1.03969436e+03  1.03348551e+03  3.00e-08 4.55e-13  3.16e-05     1s
  24   1.03792770e+03  1.03464790e+03  1.55e-08 4.55e-13  1.67e-05     1s
  25   1.03689629e+03  1.03521081e+03  7.18e-09 4.55e-13  8.58e-06     1s
  26   1.03636272e+03  1.03557866e+03  3.08e-09 4.55e-13  3.99e-06     1s
  27   1.03604500e+03  1.03586862e+03  6.73e-10 9.09e-13  8.98e-07     1s
  28   1.03597508e+03  1.03592475e+03  2.86e-10 4.55e-13  2.56e-07     1s
  29   1.03594871e+03  1.03593991e+03  1.76e-09 9.09e-13  4.48e-08     1s
  30   1.03594510e+03  1.03594482e+03  7.54e-09 9.09e-13  1.45e-09     1s
  31   1.03594503e+03  1.03594501e+03  1.04e-09 4.55e-13  9.96e-11     1s
  32   1.03594503e+03  1.03594502e+03  9.48e-11 9.09e-13  3.22e-12     1s

Barrier solved model in 32 iterations and 1.20 seconds (1.17 work units)
Optimal objective 1.03594503e+03

Crossover log...

   15656 DPushes remaining with DInf 0.0000000e+00                 1s
       0 DPushes remaining with DInf 0.0000000e+00                 1s

     865 PPushes remaining with PInf 0.0000000e+00                 1s
       0 PPushes remaining with PInf 0.0000000e+00                 2s

  Push phase complete: Pinf 0.0000000e+00, Dinf 2.3934738e-12      2s

Iteration    Objective       Primal Inf.    Dual Inf.      Time
    5714    1.0359450e+03   0.000000e+00   0.000000e+00      2s

Solved in 5714 iterations and 1.83 seconds (1.42 work units)
Optimal objective  1.035945025e+03
